solution status: optimal solution found
objective value:                                   41
x21                                                 1 	(obj:1)
x22                                                 1 	(obj:1)
x23                                                 1 	(obj:1)
x24                                                 1 	(obj:1)
x26                                                 1 	(obj:1)
x27                                                 1 	(obj:1)
x28                                                 1 	(obj:1)
x29                                                 1 	(obj:1)
x31                                                 1 	(obj:1)
x32                                                 1 	(obj:1)
x33                                                 1 	(obj:1)
x34                                                 1 	(obj:1)
x35                                                 1 	(obj:1)
x36                                                 1 	(obj:1)
x37                                                 1 	(obj:1)
x38                                                 1 	(obj:1)
x39                                                 1 	(obj:1)
x40                                                 1 	(obj:1)
x42                                                 1 	(obj:1)
x43                                                 1 	(obj:1)
x44                                                 1 	(obj:1)
x45                                                 1 	(obj:1)
x46                                                 1 	(obj:1)
x47                                                 1 	(obj:1)
x48                                                 1 	(obj:1)
x49                                                 1 	(obj:1)
x50                                                 1 	(obj:1)
x53                                                 1 	(obj:1)
x56                                                 1 	(obj:1)
x57                                                 1 	(obj:1)
x58                                                 1 	(obj:1)
x61                                                 1 	(obj:1)
x62                                                 1 	(obj:1)
x63                                                 1 	(obj:1)
x64                                                 1 	(obj:1)
x65                                                 1 	(obj:1)
x66                                                 1 	(obj:1)
x68                                                 1 	(obj:1)
x70                                                 1 	(obj:1)
x71                                                 1 	(obj:1)
x72                                                 1 	(obj:1)
one.thingy.devices[2].thingy.vp4_y                    9 	(obj:0)
one.thingy.devices[2].thingy.vp4_z                   12 	(obj:0)
one.pump_a[1].flush_y                               6 	(obj:0)
one.pump_a[1].flush_z                               5 	(obj:0)
one.thingy.devices[3].thingy.vp2_y                   10 	(obj:0)
one.thingy.devices[3].thingy.vp2_z                    9 	(obj:0)
one.thingy.devices[1].thingy.vp2_y                    7 	(obj:0)
one.thingy.devices[1].thingy.vp2_z                   17 	(obj:0)
one.thingy.devices[0].thingy.vp2_y                    4 	(obj:0)
one.thingy.devices[0].thingy.vp2_z                   13 	(obj:0)
one.thingy.devices[0].thingy.vp4_y                    1 	(obj:0)
one.thingy.devices[0].thingy.vp4_z                   12 	(obj:0)
one.thingy.devices[3].thingy.vp4_y                   11 	(obj:0)
one.thingy.devices[3].thingy.vp4_z                    8 	(obj:0)
one.thingy.devices[2].thingy.vp2_y                    9 	(obj:0)
one.thingy.devices[2].thingy.vp2_z                   13 	(obj:0)
one.thingy.devices[1].thingy.vp4_y                    5 	(obj:0)
one.thingy.devices[1].thingy.vp4_z                   14 	(obj:0)
one.pump_a[1].hole_z                                9 	(obj:0)
